 vasp.5.4.4.18Apr17-6-g9f103f2a35 (build Sep 12 2022 16:13:44) complex

 executed on             LinuxIFC date 2022.09.19  23:50:40

 INCAR:
 POTCAR:    PAW_PBE Ni 02Aug2007
 POTCAR:    PAW_PBE H 15Jun2001
 POTCAR:    PAW_PBE C 08Apr2002

 POTCAR:    PAW_PBE Ni 02Aug2007
   VRHFIN =Ni:

   TITEL  = PAW_PBE Ni 02Aug2007
   POMASS =   58.690; ZVAL   =   10.000    mass and valenz
   ENMAX  =  269.532; ENMIN  =  202.149 eV

 POTCAR:    PAW_PBE H 15Jun2001
   VRHFIN =H: ultrasoft test

   TITEL  = PAW_PBE H 15Jun2001
   POMASS =    1.000; ZVAL   =    1.000    mass and valenz
   ENMAX  =  250.000; ENMIN  =  200.000 eV

 POTCAR:    PAW_PBE C 08Apr2002
   VRHFIN =C: s2p2

   TITEL  = PAW_PBE C 08Apr2002
   POMASS =   12.011; ZVAL   =    4.000    mass and valenz
   ENMAX  =  400.000; ENMIN  =  300.000 eV

 Optimization of the real space projectors (new method)

 maximal supplied QI-value         = 16.25
 optimisation between [QCUT,QGAM] = [  9.43, 19.01] = [ 24.88,101.24] Ry
 Optimized for a Real-space Cutoff    1.52 Angstroem

   l    n(q)    QCUT    max X(q) W(low)/X(q) W(high)/X(q)  e(spline)
   2      8     9.426    60.317    0.37E-03    0.24E-04    0.33E-06
   2      8     9.426    55.921    0.38E-03    0.25E-04    0.33E-06
   0      9     9.426    51.690    0.69E-04    0.18E-03    0.73E-07
   0      9     9.426    30.015    0.59E-04    0.16E-03    0.68E-07
   1      8     9.426    18.849    0.26E-03    0.18E-03    0.76E-07
   1      8     9.426    14.624    0.22E-03    0.16E-03    0.64E-07
 Optimization of the real space projectors (new method)

[...]

   l    n(q)    QCUT    max X(q) W(low)/X(q) W(high)/X(q)  e(spline)
   0      7     9.577    19.460    0.33E-03    0.12E-03    0.35E-06
   0      7     9.577    12.209    0.33E-03    0.11E-03    0.33E-06
   1      7     9.577     4.655    0.39E-03    0.14E-02    0.33E-06
 Optimization of the real space projectors (new method)

 maximal supplied QI-value         = 25.13
 optimisation between [QCUT,QGAM] = [  9.55, 19.10] = [ 25.54,102.17] Ry
 Optimized for a Real-space Cutoff    1.39 Angstroem

   l    n(q)    QCUT    max X(q) W(low)/X(q) W(high)/X(q)  e(spline)
   0      8     9.551   115.676    0.39E-03    0.54E-03    0.29E-06
   0      8     9.551    87.132    0.39E-03    0.54E-03    0.28E-06
   1      7     9.551     4.429    0.35E-03    0.51E-04    0.29E-06
   1      7     9.551     2.733    0.22E-03    0.42E-04    0.31E-06

  PAW_PBE Ni 02Aug2007                  :
  PAW_PBE H 15Jun2001                   :
  PAW_PBE C 08Apr2002                   :

 POSCAR:  CH4 + Ni(111) - Asymptotic
  positions in cartesian coordinates
  velocities in cartesian coordinates
 exchange correlation table for  LEXCH =       47
   RHO(1)=    0.500       N(1)  =     2000
   RHO(2)=  100.500       N(2)  =     4000

 ion  position               nearest neighbor table
   1  0.000  0.000  0.000-  18 2.50  16 2.50  15 2.50   7 2.51   4 2.51   5 2.51   2 2.51   3 2.51
                             9 2.51
   2  0.000  0.333  0.000-  13 2.50  16 2.50  17 2.50   5 2.51   3 2.51   6 2.51   7 2.51   1 2.51
                             8 2.51
   3  0.000  0.667  0.000-  17 2.50  18 2.50  14 2.50   6 2.51   2 2.51   4 2.51   1 2.51   8 2.51
                             9 2.51
   4  0.333  0.000  0.000-  18 2.50  12 2.50  10 2.50   1 2.51   3 2.51   6 2.51   5 2.51   8 2.51
                             7 2.51
   5  0.333  0.333  0.000-  16 2.50  10 2.50  11 2.50   2 2.51   8 2.51   6 2.51   1 2.51   9 2.51
                             4 2.51
   6  0.333  0.667  0.000-  17 2.50  11 2.50  12 2.50   3 2.51   9 2.51   5 2.51   2 2.51   4 2.51
                             7 2.51
   7  0.667  0.000  0.000-  15 2.50  13 2.50  12 2.50   9 2.51   1 2.51   2 2.51   8 2.51   6 2.51
                             4 2.51
   8  0.667  0.333  0.000-  10 2.50  14 2.50  13 2.50   5 2.51   9 2.51   4 2.51   3 2.51   7 2.51
                             2 2.51
   9  0.667  0.667  0.000-  14 2.50  11 2.50  15 2.50   7 2.51   6 2.51   8 2.51   5 2.51   1 2.51
                             3 2.51
  10  0.444  0.222  0.092-   8 2.50   5 2.50   4 2.50  22 2.51  23 2.51  19 2.51  16 2.51  18 2.51
                            12 2.51  11 2.51  14 2.51  13 2.51
  11  0.444  0.556  0.092-   6 2.50   9 2.50   5 2.50  24 2.51  20 2.51  23 2.51  17 2.51  14 2.51
                            12 2.51  16 2.51  15 2.51  10 2.51
  12  0.444  0.889  0.092-   4 2.50   6 2.50   7 2.50  22 2.51  21 2.51  24 2.51  18 2.51  15 2.51
                            11 2.51  17 2.51  10 2.51  13 2.51
  13  0.778  0.222  0.092-   2 2.50   7 2.50   8 2.50  26 2.51  22 2.51  25 2.51  15 2.51  16 2.51
                            17 2.51  14 2.51  12 2.51  10 2.51
  14  0.778  0.556  0.092-   9 2.50   8 2.50   3 2.50  26 2.51  27 2.51  23 2.51  11 2.51  15 2.51
                            10 2.51  18 2.51  13 2.51  17 2.51
  15  0.778  0.889  0.092-   7 2.50   9 2.50   1 2.50  24 2.51  25 2.51  27 2.51  13 2.51  12 2.51
                            14 2.51  11 2.51  16 2.51  18 2.51
  16  0.111  0.222  0.092-   5 2.50   2 2.50   1 2.50  25 2.51  20 2.51  19 2.51  10 2.51  13 2.51
                            11 2.51  18 2.51  17 2.51  15 2.51
  17  0.111  0.556  0.092-   6 2.50   3 2.50   2 2.50  26 2.51  21 2.51  20 2.51  11 2.51  18 2.51
                            12 2.51  16 2.51  13 2.51  14 2.51
  18  0.111  0.889  0.092-   4 2.50   1 2.50   3 2.50  27 2.51  21 2.51  19 2.51  12 2.51  17 2.51
                            10 2.51  16 2.51  14 2.51  15 2.51
  19  0.222  0.111  0.185-  28 2.50  31 2.50  32 2.50  18 2.51  10 2.51  16 2.51  23 2.51  27 2.51
                            25 2.51  20 2.51  22 2.51  21 2.51
  20  0.222  0.444  0.185-  29 2.50  33 2.50  32 2.50  11 2.51  16 2.51  17 2.51  23 2.51  19 2.51
                            24 2.51  25 2.51  26 2.51  21 2.51
  21  0.222  0.778  0.185-  30 2.50  33 2.50  31 2.50  12 2.51  18 2.51  17 2.51  22 2.51  24 2.51
                            19 2.51  27 2.51  26 2.51  20 2.51
  22  0.556  0.111  0.185-  35 2.50  34 2.50  31 2.50  12 2.51  10 2.51  13 2.51  21 2.51  24 2.51
                            19 2.51  23 2.51  26 2.51  25 2.51
  23  0.556  0.444  0.185-  36 2.50  35 2.50  32 2.50  10 2.51  11 2.51  14 2.51  20 2.51  19 2.51
                            22 2.51  24 2.51  26 2.51  27 2.51
  24  0.556  0.778  0.185-  36 2.50  34 2.50  33 2.50  12 2.51  11 2.51  15 2.51  21 2.51  22 2.51
                            20 2.51  25 2.51  23 2.51  27 2.51
  25  0.889  0.111  0.185-  34 2.50  29 2.50  28 2.50  16 2.51  15 2.51  13 2.51  27 2.51  19 2.51
                            20 2.51  24 2.51  26 2.51  22 2.51
  26  0.889  0.444  0.185-  30 2.50  35 2.50  29 2.50  17 2.51  13 2.51  14 2.51  20 2.51  25 2.51
                            21 2.51  22 2.51  27 2.51  23 2.51
  27  0.889  0.778  0.185-  36 2.50  30 2.50  28 2.50  18 2.51  15 2.51  14 2.51  25 2.51  19 2.51
                            21 2.51  26 2.51  24 2.51  23 2.51
  28  0.000  0.000  0.277-  19 2.50  25 2.50  27 2.50  32 2.51  29 2.51  31 2.51  30 2.51  34 2.51
                            36 2.51
  29  0.000  0.333  0.277-  20 2.50  25 2.50  26 2.50  28 2.51  32 2.51  34 2.51  33 2.51  35 2.51
                            30 2.51
  30  0.000  0.667  0.277-  21 2.50  27 2.50  26 2.50  33 2.51  31 2.51  28 2.51  36 2.51  29 2.51
                            35 2.51
  31  0.333  0.000  0.277-  19 2.50  22 2.50  21 2.50  32 2.51  35 2.51  28 2.51  30 2.51  33 2.51
                            34 2.51
  32  0.333  0.333  0.277-  19 2.50  20 2.50  23 2.50  28 2.51  31 2.51  29 2.51  35 2.51  33 2.51
                            36 2.51
  33  0.333  0.667  0.277-  20 2.50  21 2.50  24 2.50  30 2.51  31 2.51  29 2.51  34 2.51  36 2.51
                            32 2.51
  34  0.667  0.000  0.277-  25 2.50  24 2.50  22 2.50  35 2.51  29 2.51  36 2.51  33 2.51  31 2.51
                            28 2.51
  35  0.667  0.333  0.277-  23 2.50  22 2.50  26 2.50  34 2.51  31 2.51  29 2.51  32 2.51  36 2.51
                            30 2.51
  36  0.667  0.667  0.277-  23 2.50  27 2.50  24 2.50  34 2.51  33 2.51  28 2.51  30 2.51  35 2.51
                            32 2.51
  37  0.412  0.492  0.655-  41 1.10
  38  0.412  0.254  0.655-  41 1.10
  39  0.175  0.254  0.655-  41 1.10
  40  0.333  0.333  0.589-  41 1.10
  41  0.333  0.333  0.638-  37 1.10  39 1.10  38 1.10  40 1.10

IMPORTANT INFORMATION: All symmetrisations will be switched off!
NOSYMM: (Re-)initialisation of all symmetry stuff for point group C_1.

 KPOINTS: K-points

Automatic generation of k-mesh.
Space group operators:
 irot       det(A)        alpha          n_x          n_y          n_z        tau_x        tau_y        tau_z
    1     1.000000     0.000000     1.000000     0.000000     0.000000     0.000000     0.000000     0.000000

 Subroutine IBZKPT returns following result:

 Found     10 irreducible k-points:

 Following reciprocal coordinates:
            Coordinates               Weight
  0.000000  0.000000  0.000000      1.000000
  0.250000 -0.000000  0.000000      2.000000
  0.500000 -0.000000  0.000000      1.000000
  0.000000  0.250000  0.000000      2.000000
  0.250000  0.250000  0.000000      2.000000
  0.500000  0.250000  0.000000      2.000000
 -0.250000  0.250000  0.000000      2.000000
  0.000000  0.500000  0.000000      1.000000
  0.250000  0.500000  0.000000      2.000000
  0.500000  0.500000  0.000000      1.000000

 Following cartesian coordinates:
            Coordinates               Weight
  0.000000  0.000000  0.000000      1.000000
  0.033142  0.019135  0.000000      2.000000
  0.066285  0.038270  0.000000      1.000000
  0.000000  0.038270  0.000000      2.000000
  0.033142  0.057404  0.000000      2.000000
  0.066285  0.076539  0.000000      2.000000
 -0.033142  0.019135  0.000000      2.000000
  0.000000  0.076539  0.000000      1.000000
  0.033142  0.095674  0.000000      2.000000
  0.066285  0.114809  0.000000      1.000000

 SYSTEM =  Ni(111) + CH4, PAW 3x3 s.u.c. 4L - Step
 POSCAR =   CH4 + Ni(111) - Asymptotic

 Startparameter for this run:
   NWRITE =      2    write-flag & timer
   PREC   = normal    normal or accurate (medium, high low for compatibility)
   ISTART =      0    job   : 0-new  1-cont  2-samecut
   ICHARG =      2    charge: 1-file 2-atom 10-const
   ISPIN  =      2    spin polarized calculation?
   LNONCOLLINEAR =      F non collinear calculations
   LSORBIT =      F    spin-orbit coupling
   INIWAV =      1    electr: 0-lowe 1-rand  2-diag
   LASPH  =      T    aspherical Exc in radial PAW
   METAGGA=      F    non-selfconsistent MetaGGA calc.

 Electronic Relaxation 1
   ENCUT  =  350.0 eV  25.72 Ry    5.07 a.u.  11.51 11.51 33.74*2*pi/ulx,y,z
   ENINI  =  350.0     initial cutoff
   ENAUG  =  644.9 eV  augmentation charge cutoff
   NELM   =     60;   NELMIN=  2; NELMDL=-12     # of ELM steps
   EDIFF  = 0.1E-03   stopping-criterion for ELM
   LREAL  =      T    real-space projection
   NLSPLINE    = F    spline interpolate recip. space projectors
   LCOMPAT=      F    compatible to vasp.4.4
   GGA_COMPAT  = T    GGA compatible to vasp.4.4-vasp.4.6
   LMAXPAW     = -100 max onsite density
[...]
      4      -5.0783      1.00000
      5      -4.9796      1.00000
      6      -4.9795      1.00000
      7      -4.9795      1.00000
      8      -4.9794      1.00000
      9      -4.9794      1.00000
     10      -4.9794      1.00000
     11      -4.4174      1.00000
     12      -4.2924      1.00000
     13      -4.2924      1.00000
     14      -4.2924      1.00000
     15      -4.2924      1.00000
     16      -4.2923      1.00000
     17      -4.2923      1.00000
     18      -4.2451      1.00000
     19      -4.2446      1.00000
     20      -4.2445      1.00000
     21      -3.6627      1.00000
     22      -3.6627      1.00000
     23      -3.6627      1.00000
     24      -3.6626      1.00000
     25      -3.6626      1.00000
     26      -3.6626      1.00000
     27      -3.4214      1.00000
     28      -3.4214      1.00000
     29      -3.4214      1.00000
     30      -3.4214      1.00000
     31      -3.4214      1.00000
     32      -3.4213      1.00000
     33      -3.1959      1.00000
     34      -3.1958      1.00000
     35      -3.1952      1.00000
     36      -3.1952      1.00000
     37      -3.1681      1.00000
     38      -3.1681      1.00000
     39      -3.1681      1.00000
     40      -3.1681      1.00000
     41      -3.1680      1.00000
     42      -3.1680      1.00000
     43      -3.1196      1.00000
     44      -3.1196      1.00000
     45      -2.9990      1.00000
     46      -2.9990      1.00000
     47      -2.9970      1.00000
     48      -2.9970      1.00000
     49      -2.8912      1.00000
     50      -2.8912      1.00000
     51      -2.8312      1.00000
     52      -2.8311      1.00000
     53      -2.8311      1.00000
     54      -2.8311      1.00000
     55      -2.8310      1.00000
     56      -2.8310      1.00000
     57      -2.7603      1.00000
     58      -2.7603      1.00000
     59      -2.3566      1.00000
     60      -2.3565      1.00000
[...]
    227       5.6137      0.00000
    228       5.6158      0.00000
    229       6.0474      0.00000
    230       6.0475      0.00000
    231       6.0479      0.00000
    232       6.0479      0.00000
    233       6.2116      0.00000
    234       6.9233      0.00000
    235       6.9337      0.00000
    236       6.9752      0.00000
    237       6.9753      0.00000
    238       6.9812      0.00000
    239       7.3481      0.00000
    240       7.3792      0.00000
    241       7.3809      0.00000

[...]

 spin component 2

[...]

 k-point    10 :       0.5000    0.5000    0.0000
  band No.  band energies     occupation
      1     -11.7951      1.00000
      2      -7.1396      1.00000
      3      -7.1396      1.00000
      4      -5.8672      1.00000
      5      -5.8672      1.00000
      6      -5.5119      1.00000
      7      -5.5119      1.00000
      8      -4.4560      1.00000
      9      -4.4559      1.00000
     10      -4.2458      1.00000
     11      -4.2443      1.00000
     12      -4.2436      1.00000
     13      -4.2387      1.00000
     14      -4.2387      1.00000
     15      -3.7309      1.00000
     16      -3.6896      1.00000
     17      -3.5530      1.00000
     18      -3.5529      1.00000
     19      -3.5529      1.00000
     20      -3.5529      1.00000
     21      -3.4398      1.00000
     22      -3.4398      1.00000
     23      -3.3692      1.00000
     24      -3.3692      1.00000
     25      -3.3692      1.00000
     26      -3.3691      1.00000
     27      -3.2645      1.00000
     28      -3.2645      1.00000
     29      -3.1433      1.00000
     30      -3.1117      1.00000
     31      -2.9993      1.00000
     32      -2.9993      1.00000
     33      -2.9992      1.00000
     34      -2.9992      1.00000
     35      -2.9918      1.00000
     36      -2.7475      1.00000
     37      -2.7474      1.00000
     38      -2.7474      1.00000
     39      -2.7473      1.00000
     40      -2.5971      1.00000
     41      -2.5971      1.00000
     42      -2.5545      1.00000
     43      -2.5545      1.00000
     44      -2.5544      1.00000
     45      -2.5544      1.00000
     46      -2.5454      1.00000
     47      -2.2951      1.00000
     48      -2.2951      1.00000
     49      -2.2951      1.00000
     50      -2.2950      1.00000
     51      -2.2819      1.00000
     52      -2.2819      1.00000
     53      -2.1213      1.00000
     54      -2.1212      1.00000
     55      -2.1023      1.00000
     56      -2.1022      1.00000
     57      -2.0969      1.00000
     58      -2.0968      1.00000
     59      -2.0968      1.00000
     60      -2.0967      1.00000
[...]
    227       5.3092      0.00000
    228       5.3093      0.00000
    229       5.9885      0.00000
    230       6.1445      0.00000
    231       6.4381      0.00000
    232       6.4609      0.00000
    233       6.5637      0.00000
    234       6.6972      0.00000
    235       6.7201      0.00000
    236       6.8302      0.00000
    237       6.9214      0.00000
    238       7.1177      0.00000
    239       7.1183      0.00000
    240       7.1183      0.00000
    241       7.1184      0.00000

 soft charge-density along one line, spin component           1
         0         1         2         3         4         5         6         7         8         9
 total charge-density along one line

 soft charge-density along one line, spin component           2
         0         1         2         3         4         5         6         7         8         9
 total charge-density along one line

------------------------ aborting loop because EDIFF is reached ----------------------------------------

  FORCE on cell =-STRESS in cart. coord.  units (eV):
  Direction    XX          YY          ZZ          XY          YZ          ZX
  Alpha Z   630.21365   630.21365   630.21365
  Ewald  161456.74768161456.76470************     0.01471     0.00953    -0.01381
  Hartree171419.44941171419.45797************     0.00715     0.00561    -0.00629
  E(xc)   -2044.23804 -2044.23985 -2046.82339    -0.00156     0.00003    -0.00005
  Local  ************************341626.39995    -0.03052    -0.01475     0.01921
  n-local  -334.86392  -334.86103  -353.06892     0.00239     0.00057    -0.00132
  augment  6365.34509  6365.36204  6410.06418     0.01462    -0.00040     0.00086
  Kinetic  2883.02228  2883.02246  2922.58581     0.00012    -0.00044     0.00082
  Fock        0.00000     0.00000     0.00000     0.00000     0.00000     0.00000
  Total     -13.35045   -13.34237    -2.17531     0.00691     0.00015    -0.00058
  in kB     -19.62793   -19.61604    -3.19815     0.01015     0.00022    -0.00085

 VOLUME and BASIS-vectors are now :
  energy-cutoff  :      350.00
  volume of cell :     1089.76
      direct lattice vectors                 reciprocal lattice vectors
     7.543189327  0.000000000  0.000000000     0.132569919  0.076539279  0.000000000
    -3.771594664  6.532593583  0.000000000     0.000000000  0.153078557  0.000000000
     0.000000000  0.000000000 22.115230000     0.000000000  0.000000000  0.045217707

  length of vectors
     7.543189327  7.543189327 22.115230000     0.153078557  0.153078557  0.045217707

 FORCES acting on ions
    electron-ion (+dipol)            ewald-force                    non-local-force                 convergence-correction
   0.893E-01 0.171E+00 0.308E+04   -.916E-01 -.166E+00 -.308E+04   0.117E-03 0.235E-03 -.112E+01   0.218E-02 -.435E-02 0.463E-03
   0.203E+00 0.653E-02 0.308E+04   -.190E+00 0.560E-02 -.308E+04   0.280E-03 0.495E-04 -.112E+01   -.131E-01 -.121E-01 0.165E-02
   0.201E-02 -.742E-02 0.308E+04   -.150E-02 -.243E-02 -.308E+04   -.393E-04 -.538E-04 -.112E+01   -.513E-03 0.987E-02 -.564E-02
   -.886E-01 0.169E+00 0.308E+04   0.898E-01 -.166E+00 -.308E+04   -.111E-03 0.256E-03 -.112E+01   -.114E-02 -.329E-02 -.300E-02
   -.116E-02 0.197E-01 0.308E+04   -.304E-03 0.170E-02 -.307E+04   -.127E-04 0.137E-03 -.112E+01   0.143E-02 -.214E-01 -.128E-02
   0.112E+00 -.176E+00 0.308E+04   -.985E-01 0.159E+00 -.308E+04   0.204E-03 -.286E-03 -.112E+01   -.139E-01 0.168E-01 -.383E-02
   -.803E-03 -.123E-01 0.308E+04   0.185E-02 0.812E-03 -.308E+04   -.446E-04 -.187E-04 -.112E+01   -.103E-02 0.115E-01 0.839E-03
   -.202E+00 0.485E-02 0.308E+04   0.190E+00 0.755E-02 -.308E+04   -.325E-03 0.717E-04 -.112E+01   0.117E-01 -.124E-01 -.979E-03
   -.114E+00 -.175E+00 0.308E+04   0.100E+00 0.160E+00 -.308E+04   -.184E-03 -.331E-03 -.112E+01   0.144E-01 0.154E-01 -.413E-02
   -.150E-01 0.251E-02 0.103E+04   0.959E-02 0.983E-02 -.103E+04   -.121E-03 -.110E-03 -.238E+00   0.522E-02 -.121E-01 -.116E-01
   -.562E-02 -.914E-02 0.103E+04   0.746E-02 0.794E-02 -.103E+04   0.345E-07 0.218E-04 -.238E+00   -.189E-02 0.899E-03 0.574E-02
   -.766E-02 -.760E-02 0.103E+04   0.599E-02 -.667E-02 -.103E+04   -.149E-03 0.159E-04 -.238E+00   0.176E-02 0.142E-01 -.947E-02
   -.107E-01 -.100E-03 0.103E+04   0.809E-02 0.105E-01 -.103E+04   -.762E-04 -.570E-04 -.238E+00   0.275E-02 -.103E-01 -.159E-01
   -.119E-01 -.371E-02 0.103E+04   0.457E-02 0.552E-02 -.103E+04   -.250E-03 0.458E-04 -.238E+00   0.731E-02 -.189E-02 -.161E-01
   0.770E-03 -.676E-02 0.103E+04   0.318E-02 -.899E-02 -.103E+04   0.100E-04 -.999E-04 -.238E+00   -.388E-02 0.158E-01 -.150E-01
   0.242E-01 0.491E-02 0.103E+04   -.161E-01 0.401E-02 -.103E+04   0.118E-03 0.476E-05 -.238E+00   -.797E-02 -.875E-02 -.979E-02
   0.158E-01 0.926E-02 0.103E+04   -.103E-01 -.617E-02 -.103E+04   0.156E-03 0.787E-04 -.238E+00   -.543E-02 -.330E-02 -.880E-02
   0.538E-02 0.137E-01 0.103E+04   -.760E-02 -.192E-01 -.103E+04   0.673E-04 0.242E-03 -.238E+00   0.213E-02 0.554E-02 -.252E-01
   -.615E-02 -.113E-01 -.103E+04   -.174E-02 0.565E-02 0.103E+04   0.498E-04 -.912E-04 0.232E+00   0.787E-02 0.607E-02 -.302E-01
   0.137E-01 -.305E-01 -.103E+04   -.150E-01 0.229E-01 0.103E+04   -.159E-05 0.940E-05 0.231E+00   0.131E-02 0.766E-02 -.170E-01
   -.923E-02 0.395E-01 -.103E+04   -.737E-02 -.410E-01 0.103E+04   -.350E-04 -.734E-04 0.230E+00   0.166E-01 0.116E-02 -.150E-01
   -.391E-01 -.109E-01 -.103E+04   0.377E-01 0.204E-01 0.103E+04   0.136E-03 0.276E-04 0.230E+00   0.162E-02 -.911E-02 -.259E-01
   -.200E-01 -.420E-01 -.103E+04   0.284E-01 0.430E-01 0.103E+04   0.190E-03 0.154E-03 0.231E+00   -.833E-02 -.821E-03 -.187E-01
   -.143E-01 0.961E-02 -.103E+04   0.254E-01 -.964E-02 0.103E+04   0.241E-03 -.449E-04 0.230E+00   -.110E-01 -.224E-03 -.157E-01
   0.461E-01 -.584E-02 -.103E+04   -.368E-01 0.247E-02 0.103E+04   0.459E-04 -.124E-03 0.231E+00   -.950E-02 0.361E-02 -.373E-01
   0.765E-02 -.595E-02 -.103E+04   -.148E-01 0.126E-01 0.103E+04   0.271E-04 -.191E-04 0.231E+00   0.703E-02 -.663E-02 -.251E-01
   0.238E-01 0.551E-01 -.103E+04   -.184E-01 -.538E-01 0.103E+04   -.373E-04 -.803E-04 0.231E+00   -.564E-02 -.169E-02 -.281E-01
   0.171E+00 0.292E+00 -.308E+04   -.173E+00 -.292E+00 0.308E+04   -.423E-03 -.670E-03 0.111E+01   0.201E-02 0.145E-03 -.145E-01
   0.304E+00 -.721E-01 -.308E+04   -.307E+00 0.578E-01 0.308E+04   -.545E-03 0.106E-03 0.111E+01   0.357E-02 0.145E-01 -.169E-01
   0.512E-01 0.819E-01 -.308E+04   -.666E-01 -.795E-01 0.308E+04   -.509E-03 -.306E-03 0.111E+01   0.154E-01 -.258E-02 -.115E-01
   -.179E+00 0.238E+00 -.308E+04   0.165E+00 -.229E+00 0.308E+04   0.353E-03 -.265E-03 0.111E+01   0.136E-01 -.854E-02 -.163E-01
   -.618E-01 -.140E+00 -.308E+04   0.610E-01 0.126E+00 0.308E+04   0.362E-03 0.617E-03 0.111E+01   0.850E-03 0.147E-01 -.171E-01
   0.724E-01 -.193E+00 -.308E+04   -.741E-01 0.189E+00 0.308E+04   0.276E-03 0.164E-03 0.111E+01   0.176E-02 0.316E-02 -.198E-01
   0.782E-02 0.426E-01 -.308E+04   0.774E-02 -.309E-01 0.308E+04   0.120E-03 -.188E-03 0.111E+01   -.156E-01 -.118E-01 -.210E-01
   -.241E+00 -.105E+00 -.308E+04   0.246E+00 0.108E+00 0.308E+04   0.203E-03 0.520E-03 0.111E+01   -.440E-02 -.306E-02 -.157E-01
   -.122E+00 -.145E+00 -.308E+04   0.139E+00 0.151E+00 0.308E+04   0.235E-03 -.157E-04 0.111E+01   -.171E-01 -.669E-02 -.149E-01
   -.160E-04 -.487E+02 0.346E+01   0.119E-04 0.540E+02 -.160E+01   -.551E-04 -.528E+01 -.187E+01   -.646E-06 0.404E-03 0.852E-03
   -.422E+02 0.243E+02 0.346E+01   0.467E+02 -.270E+02 -.160E+01   -.457E+01 0.264E+01 -.187E+01   0.352E-03 -.205E-03 0.860E-03
   0.422E+02 0.243E+02 0.346E+01   -.467E+02 -.270E+02 -.160E+01   0.457E+01 0.264E+01 -.187E+01   -.350E-03 -.205E-03 0.860E-03
   -.342E-04 -.767E-04 -.106E+02   0.390E-04 0.691E-04 0.497E+01   0.335E-05 -.275E-05 0.560E+01   0.112E-05 0.593E-05 0.603E-03
   0.168E-03 -.223E-03 -.437E-01   0.543E-04 0.966E-04 0.360E-01   0.152E-03 -.181E-04 -.766E-03   0.156E-05 -.278E-05 0.306E-02
   0.919E-04 -.674E-04 0.506E+00   -.185E-12 -.537E-13 0.112E-10   0.422E-03 -.179E-03 -.191E+00   0.114E-04 0.186E-04 -.476E+00

 POSITION                                       TOTAL-FORCE (eV/Angst)
      0.00000      0.00000      0.00000        -0.000018      0.000113      0.002669
     -1.25720      2.17753      0.00000         0.000125      0.000046      0.002646
     -2.51440      4.35506      0.00000        -0.000061     -0.000026      0.003088
      2.51440      0.00000      0.00000        -0.000044      0.000108      0.002819
      1.25720      2.17753      0.00000        -0.000067      0.000156      0.003309
     -0.00000      4.35506      0.00000         0.000119     -0.000127      0.002410
      5.02879      0.00000      0.00000        -0.000040     -0.000034      0.002963
      3.77159      2.17753      0.00000        -0.000173      0.000075      0.002657
      2.51440      4.35506      0.00000        -0.000152     -0.000128      0.002543
      2.51440      1.45169      2.03320        -0.000360      0.000119     -0.003002
      1.25720      3.62922      2.03320        -0.000054     -0.000274     -0.002997
     -0.00000      5.80675      2.03320        -0.000068     -0.000086     -0.003347
      5.02879      1.45169      2.03320         0.000078      0.000022     -0.002960
      3.77159      3.62922      2.03320        -0.000303     -0.000028     -0.002758
      2.51440      5.80675      2.03320         0.000065     -0.000062     -0.003102
      0.00000      1.45169      2.03320         0.000234      0.000181     -0.002905
     -1.25720      3.62922      2.03320         0.000293     -0.000124     -0.002840
     -2.51440      5.80675      2.03320        -0.000039      0.000302     -0.003033
      1.25722      0.72583      4.08355         0.000018      0.000293      0.000452
      0.00008      2.90333      4.08357        -0.000018      0.000064      0.000090
     -1.25715      5.08095      4.08338        -0.000049     -0.000435     -0.000183
      3.77157      0.72577      4.08335         0.000303      0.000382     -0.000283
      2.51435      2.90327      4.08354         0.000199      0.000395     -0.000231
      1.25716      5.08091      4.08336         0.000413     -0.000291     -0.000684
      6.28608      0.72580      4.08342        -0.000186      0.000119      0.000262
      5.02885      2.90335      4.08340        -0.000075     -0.000025     -0.000182
      3.77167      5.08099      4.08341        -0.000285     -0.000535     -0.000106
      0.00009      0.00006      6.11580        -0.000333     -0.000573     -0.001866
     -1.25710      2.17745      6.11556        -0.000420      0.000351     -0.001052
     -2.51429      4.35510      6.11539        -0.000526     -0.000472     -0.000330
      2.51440      0.00002      6.11576         0.000290     -0.000186     -0.002142
      1.25718      2.17739      6.11611         0.000434      0.000880     -0.002982
     -0.00000      4.35506      6.11561         0.000373     -0.000139     -0.001565
      5.02882      0.00001      6.11546         0.000053     -0.000222     -0.000626
      3.77164      2.17740      6.11539        -0.000030      0.000745     -0.000460
      2.51442      4.35509      6.11523         0.000107     -0.000418     -0.000034
      1.25718      3.21144     14.48082        -0.000073      0.001169      0.004325
      2.15270      1.66036     14.48082         0.000968     -0.000613      0.004250
      0.36166      1.66036     14.48082        -0.001057     -0.000582      0.004310
      1.25718      2.17739     13.01845        -0.000004      0.000001      0.002379
      1.25718      2.17739     14.11523         0.000363     -0.000142     -0.001501
    total drift:                                0.000525     -0.000228     -0.160894

  FREE ENERGIE OF THE ION-ELECTRON SYSTEM (eV)
  free  energy   TOTEN  =       -90.62956377 eV

  energy  without entropy=      -88.41850014  energy(sigma->0) =      -89.52403196

 Quasi-Newton relaxation of ions (Broydens 2nd method)
  g(Force)  = 0.455E-05   g(Stress)= 0.000E+00

 Reset! Starting new Quasi-Newton update for ions

 reached required accuracy - stopping structural energy minimisation